NAME: Tnm85
COMMENT: Recalculated optimal tour for Tnm85, using concorde got a tour of length 1117381.0
TYPE: TOUR
DIMENSION: 85
TOUR_SECTION
1
63
60
57
54
68
71
51
48
45
42
39
36
33
74
77
80
83
85
84
82
79
76
73
30
27
24
21
18
15
12
70
67
9
6
3
62
59
64
56
53
50
47
44
41
38
35
32
29
26
23
20
17
14
11
8
5
2
61
58
66
55
52
49
69
72
75
78
81
46
43
40
37
34
31
28
25
22
19
16
13
10
7
4
65 
-1
EOF
